(declare-rel inv2 (Int Int Int Int))
(declare-rel fail ())
(declare-var A Int)
(declare-var B Int)
(declare-var C Int)
(declare-var D Int)
(declare-var E Int)
(declare-var F Int)
(rule (=> (and (= E 1) (= F (- 1)) (> A 0) (>= 5143523 A) (= B A)) (inv2 E F B A)))
(rule (let ((a!1 (and (inv2 E F B A) (= C (- (+ E E))) (= D (ite (< E 0) (* 4 F) F)))))
  (=> a!1 (inv2 C D B A))))
(rule (let ((a!1 (and (inv2 E F B A) (> E B) (not (= 0 (+ E F))))))
  (=> a!1 fail)))
(query fail)

